param set_len = 50;
param target := 449238;
param values := [1] 12692 [2] 22912 [3] 473 [4] 28146 [5] 14787 [6] 20409 [7] 24525 [8] 3615 [9] 12578 [10] 8219 [11] 3002 [12] 21336 [13] 24034 [14] 4492 [15] 30373 [16] 25553 [17] 27932 [18] 26913 [19] 11301 [20] 3709 [21] 1475 [22] 7205 [23] 11635 [24] 10744 [25] 26561 [26] 8339 [27] 22586 [28] 14047 [29] 25450 [30] 30454 [31] 17218 [32] 3671 [33] 28207 [34] 23171 [35] 8693 [36] 19487 [37] 15870 [38] 14898 [39] 30285 [40] 23897 [41] 27861 [42] 26968 [43] 1658 [44] 16555 [45] 22964 [46] 17184 [47] 32205 [48] 24957 [49] 14632 [50] 27175 ;
